g3 0 1 0	# problem d5n8R0R6d01d05
 8 5 1 0 0	# vars, constraints, objectives, ranges, eqns
 3 1	# nonlinear constraints, objectives
 0 0	# network constraints: nonlinear, linear
 8 8 8	# nonlinear vars in constraints, objectives, both
 0 0 0 1	# linear network variables; functions; arith, flags
 0 0 0 0 0	# discrete variables: binary, integer, nonlinear (b,c,o)
 40 8	# nonzeros in Jacobian, gradients
 0 0	# max name lengths: constraints, variables
 0 0 0 0 0	# common exprs: b,c,o,c1,o1
b
0 0.63 2.56
0 0.88 2.77
0 0.75 2.62
0 0.88 2.95
0 0.27 2.8
0 0.18 2.34
0 0.83 2.21
0 0.89 2.69
r
2 338.367
2 1193.93
2 4884.29
2 6.369
2 39.627
C0
o54
19
o2
o2
o2
n3.99
v0
v1
v1
o2
o2
o2
n4.55
v0
v1
v7
o2
o2
o2
n6.25
v0
v3
v5
o16
o2
o2
o2
n2.68
v0
v6
v7
o2
o2
o2
n2
v1
v1
v3
o2
o2
o2
n3.26
v1
v2
v7
o2
o2
o2
n1.37
v1
v5
v5
o2
o2
o2
n2.2
v1
v5
v7
o2
o2
o2
n8.4
v2
v2
v7
o2
o2
o2
n3.59
v2
v3
v5
o2
o2
o2
n0.48
v2
v3
v7
o2
o2
o2
n7.49
v2
v4
v7
o2
o2
o2
n0.31
v2
v6
v7
o2
o2
o2
n0.23
v3
v5
v7
o2
o2
o2
n2.04
v4
v4
v7
o2
o2
o2
n1.62
v4
v6
v7
o2
o2
o2
n7.9
v6
v6
v6
o2
o2
o2
n7.86
v6
v6
v7
o2
o2
o2
n7.19
v6
v7
v7
C1
o54
50
o2
o2
o2
n9.72
v0
v1
v1
o2
o2
o2
n1.94
v0
v1
v7
o2
o2
o2
n1.64
v0
v3
v5
o2
o2
o2
n3.8
v0
v6
v7
o2
o2
o2
n2.36
v1
v1
v3
o2
o2
o2
n6.24
v1
v2
v7
o2
o2
o2
n1.61
v1
v5
v5
o16
o2
o2
o2
n6.59
v1
v5
v7
o2
o2
o2
n3.28
v2
v2
v7
o2
o2
o2
n1.63
v2
v3
v5
o2
o2
o2
n4.8
v2
v3
v7
o2
o2
o2
n4.58
v2
v4
v7
o2
o2
o2
n2
v2
v6
v7
o2
o2
o2
n1.34
v3
v5
v7
o16
o2
o2
o2
n8.57
v4
v4
v7
o2
o2
o2
n7.88
v4
v6
v7
o2
o2
o2
n4.03
v6
v6
v6
o2
o2
o2
n4.92
v6
v6
v7
o2
o2
o2
n9.49
v6
v7
v7
o2
o2
o2
o2
n1.91
v0
v0
v0
v6
o2
o2
o2
o2
n5.09
v0
v0
v1
v6
o2
o2
o2
o2
n6.52
v0
v0
v2
v7
o2
o2
o2
o2
n8.22
v0
v0
v3
v7
o2
o2
o2
o2
n1.36
v0
v1
v2
v4
o16
o2
o2
o2
o2
n6.66
v0
v1
v3
v6
o2
o2
o2
o2
n4.5
v0
v2
v3
v7
o2
o2
o2
o2
n5.61
v0
v2
v4
v5
o2
o2
o2
o2
n5.32
v0
v3
v5
v5
o16
o2
o2
o2
o2
n2.71
v0
v3
v5
v7
o2
o2
o2
o2
n2.21
v0
v6
v6
v6
o2
o2
o2
o2
n0.12
v1
v1
v2
v6
o2
o2
o2
o2
n3.8
v1
v1
v3
v4
o2
o2
o2
o2
n7.73
v1
v2
v2
v2
o2
o2
o2
o2
n0.11
v1
v2
v2
v4
o2
o2
o2
o2
n6.47
v1
v2
v6
v7
o2
o2
o2
o2
n5.39
v1
v3
v3
v7
o2
o2
o2
o2
n5.97
v1
v3
v6
v7
o2
o2
o2
o2
n9.03
v1
v4
v6
v7
o2
o2
o2
o2
n5.44
v2
v6
v7
v7
o2
o2
o2
o2
n6.21
v3
v3
v4
v5
o16
o2
o2
o2
o2
n1.95
v3
v3
v5
v7
o2
o2
o2
o2
n4.8
v3
v3
v6
v7
o2
o2
o2
o2
n5.11
v3
v4
v4
v7
o2
o2
o2
o2
n0.11
v3
v4
v5
v5
o2
o2
o2
o2
n2.25
v3
v6
v6
v7
o2
o2
o2
o2
n4.02
v3
v7
v7
v7
o2
o2
o2
o2
n3.16
v4
v4
v4
v7
o2
o2
o2
o2
n0.09
v5
v6
v6
v6
o2
o2
o2
o2
n8.45
v5
v6
v7
v7
o2
o2
o2
o2
n1.17
v7
v7
v7
v7
C2
o54
128
o2
o2
o2
n3.94
v0
v1
v1
o2
o2
o2
n9.68
v0
v1
v7
o2
o2
o2
n2.23
v0
v3
v5
o2
o2
o2
n6.29
v0
v6
v7
o2
o2
o2
n8.39
v1
v1
v3
o2
o2
o2
n8.2
v1
v2
v7
o2
o2
o2
n4.12
v1
v5
v5
o2
o2
o2
n4.57
v1
v5
v7
o2
o2
o2
n5
v2
v2
v7
o2
o2
o2
n3.55
v2
v3
v5
o2
o2
o2
n8.29
v2
v3
v7
o2
o2
o2
n6.04
v2
v4
v7
o2
o2
o2
n9.28
v2
v6
v7
o2
o2
o2
n4.12
v3
v5
v7
o2
o2
o2
n9.75
v4
v4
v7
o2
o2
o2
n0.81
v4
v6
v7
o2
o2
o2
n8.06
v6
v6
v6
o2
o2
o2
n2.59
v6
v6
v7
o2
o2
o2
n4.59
v6
v7
v7
o2
o2
o2
o2
n1.37
v0
v0
v0
v6
o2
o2
o2
o2
n1.83
v0
v0
v1
v6
o2
o2
o2
o2
n7.38
v0
v0
v2
v7
o2
o2
o2
o2
n3.02
v0
v0
v3
v7
o2
o2
o2
o2
n9.62
v0
v1
v2
v4
o2
o2
o2
o2
n8.45
v0
v1
v3
v6
o2
o2
o2
o2
n5.33
v0
v2
v3
v7
o2
o2
o2
o2
n3.6
v0
v2
v4
v5
o2
o2
o2
o2
n5.2
v0
v3
v5
v5
o2
o2
o2
o2
n7.95
v0
v3
v5
v7
o2
o2
o2
o2
n5.67
v0
v6
v6
v6
o16
o2
o2
o2
o2
n8.76
v1
v1
v2
v6
o2
o2
o2
o2
n5.1
v1
v1
v3
v4
o2
o2
o2
o2
n8.71
v1
v2
v2
v2
o2
o2
o2
o2
n5.19
v1
v2
v2
v4
o2
o2
o2
o2
n1.56
v1
v2
v6
v7
o2
o2
o2
o2
n4.39
v1
v3
v3
v7
o2
o2
o2
o2
n4.85
v1
v3
v6
v7
o2
o2
o2
o2
n4.68
v1
v4
v6
v7
o2
o2
o2
o2
n3.7
v2
v6
v7
v7
o2
o2
o2
o2
n8.4
v3
v3
v4
v5
o2
o2
o2
o2
n4.82
v3
v3
v5
v7
o2
o2
o2
o2
n6.67
v3
v3
v6
v7
o2
o2
o2
o2
n4.75
v3
v4
v4
v7
o2
o2
o2
o2
n5.95
v3
v4
v5
v5
o2
o2
o2
o2
n1.34
v3
v6
v6
v7
o2
o2
o2
o2
n4.32
v3
v7
v7
v7
o2
o2
o2
o2
n2.7
v4
v4
v4
v7
o2
o2
o2
o2
n3.98
v5
v6
v6
v6
o2
o2
o2
o2
n2.48
v5
v6
v7
v7
o16
o2
o2
o2
o2
n1.65
v7
v7
v7
v7
o2
o2
o2
o2
o2
n5.69
v0
v0
v0
v0
v2
o2
o2
o2
o2
o2
n3.33
v0
v0
v0
v1
v1
o2
o2
o2
o2
o2
n4.07
v0
v0
v0
v2
v2
o2
o2
o2
o2
o2
n4.99
v0
v0
v1
v1
v4
o2
o2
o2
o2
o2
n5.03
v0
v0
v1
v5
v7
o16
o2
o2
o2
o2
o2
n5.84
v0
v0
v2
v2
v6
o2
o2
o2
o2
o2
n3.34
v0
v0
v2
v2
v7
o2
o2
o2
o2
o2
n5.63
v0
v0
v3
v4
v4
o2
o2
o2
o2
o2
n9.45
v0
v0
v3
v5
v7
o16
o2
o2
o2
o2
o2
n2.65
v0
v0
v3
v6
v7
o2
o2
o2
o2
o2
n3.77
v0
v0
v4
v4
v5
o2
o2
o2
o2
o2
n3.83
v0
v0
v6
v6
v6
o2
o2
o2
o2
o2
n0.61
v0
v1
v2
v6
v7
o2
o2
o2
o2
o2
n3.78
v0
v1
v3
v3
v7
o2
o2
o2
o2
o2
n1.25
v0
v1
v3
v5
v7
o2
o2
o2
o2
o2
n3.97
v0
v1
v5
v5
v5
o2
o2
o2
o2
o2
n9.85
v0
v1
v6
v6
v7
o2
o2
o2
o2
o2
n8.95
v0
v2
v2
v4
v5
o2
o2
o2
o2
o2
n1.48
v0
v2
v3
v4
v6
o2
o2
o2
o2
o2
n0.98
v0
v2
v3
v6
v7
o2
o2
o2
o2
o2
n6.23
v0
v2
v4
v7
v7
o2
o2
o2
o2
o2
n9.66
v0
v2
v6
v6
v7
o2
o2
o2
o2
o2
n8.54
v0
v3
v3
v3
v4
o2
o2
o2
o2
o2
n8.12
v0
v3
v3
v3
v5
o16
o2
o2
o2
o2
o2
n5.74
v0
v3
v3
v5
v7
o2
o2
o2
o2
o2
n2.47
v0
v3
v4
v4
v4
o2
o2
o2
o2
o2
n4.85
v0
v3
v4
v4
v5
o2
o2
o2
o2
o2
n5.81
v0
v3
v4
v6
v7
o2
o2
o2
o2
o2
n1.84
v0
v3
v5
v5
v5
o2
o2
o2
o2
o2
n3.63
v0
v3
v5
v5
v6
o2
o2
o2
o2
o2
n2.23
v0
v3
v5
v6
v6
o2
o2
o2
o2
o2
n1.92
v0
v5
v5
v5
v7
o16
o2
o2
o2
o2
o2
n7.22
v0
v7
v7
v7
v7
o16
o2
o2
o2
o2
o2
n4.85
v1
v1
v1
v2
v4
o2
o2
o2
o2
o2
n4.34
v1
v1
v1
v2
v6
o2
o2
o2
o2
o2
n3.17
v1
v1
v1
v4
v5
o2
o2
o2
o2
o2
n6.78
v1
v1
v1
v4
v6
o16
o2
o2
o2
o2
o2
n0.4
v1
v1
v1
v7
v7
o2
o2
o2
o2
o2
n0.29
v1
v1
v2
v3
v4
o2
o2
o2
o2
o2
n7.83
v1
v1
v2
v5
v5
o2
o2
o2
o2
o2
n1.93
v1
v1
v3
v6
v7
o2
o2
o2
o2
o2
n5.41
v1
v1
v4
v5
v6
o2
o2
o2
o2
o2
n9.52
v1
v1
v4
v7
v7
o2
o2
o2
o2
o2
n9.66
v1
v2
v2
v2
v7
o2
o2
o2
o2
o2
n6.04
v1
v2
v2
v3
v5
o2
o2
o2
o2
o2
n5.47
v1
v2
v2
v3
v6
o2
o2
o2
o2
o2
n7.92
v1
v2
v2
v3
v7
o2
o2
o2
o2
o2
n3.14
v1
v2
v3
v3
v6
o2
o2
o2
o2
o2
n1.27
v1
v2
v3
v6
v6
o2
o2
o2
o2
o2
n7.41
v1
v2
v4
v5
v5
o2
o2
o2
o2
o2
n5.25
v1
v2
v4
v6
v7
o2
o2
o2
o2
o2
n9.87
v1
v3
v3
v4
v4
o16
o2
o2
o2
o2
o2
n6.51
v1
v3
v3
v6
v6
o2
o2
o2
o2
o2
n1.41
v1
v3
v4
v5
v5
o2
o2
o2
o2
o2
n3.75
v1
v3
v5
v6
v6
o2
o2
o2
o2
o2
n6.28
v1
v3
v6
v7
v7
o2
o2
o2
o2
o2
n6.67
v1
v4
v4
v5
v5
o2
o2
o2
o2
o2
n4.28
v1
v4
v6
v6
v7
o2
o2
o2
o2
o2
n8.02
v2
v2
v2
v2
v5
o2
o2
o2
o2
o2
n2.61
v2
v2
v2
v4
v4
o2
o2
o2
o2
o2
n3.2
v2
v2
v3
v4
v4
o2
o2
o2
o2
o2
n4.07
v2
v2
v3
v5
v5
o2
o2
o2
o2
o2
n6.15
v2
v2
v4
v4
v5
o2
o2
o2
o2
o2
n3.04
v2
v3
v3
v4
v6
o2
o2
o2
o2
o2
n5.82
v2
v4
v4
v5
v7
o2
o2
o2
o2
o2
n5.86
v2
v4
v5
v5
v5
o16
o2
o2
o2
o2
o2
n2.12
v3
v3
v3
v3
v6
o2
o2
o2
o2
o2
n7.19
v3
v3
v3
v6
v6
o2
o2
o2
o2
o2
n5.54
v3
v3
v4
v4
v6
o2
o2
o2
o2
o2
n8.86
v3
v5
v5
v5
v6
o16
o2
o2
o2
o2
o2
n9.41
v3
v5
v5
v6
v7
o2
o2
o2
o2
o2
n2.8
v4
v4
v4
v6
v7
o2
o2
o2
o2
o2
n8.92
v4
v4
v4
v7
v7
o16
o2
o2
o2
o2
o2
n4.69
v4
v5
v5
v5
v5
o2
o2
o2
o2
o2
n5.92
v4
v5
v5
v5
v6
o16
o2
o2
o2
o2
o2
n9.67
v4
v6
v6
v7
v7
o2
o2
o2
o2
o2
n3.59
v5
v6
v6
v6
v7
o2
o2
o2
o2
o2
n6.99
v6
v6
v7
v7
v7
C3
n0
C4
n0
O0 0
o54
128
o2
o2
o2
n6.71
v0
v1
v1
o2
o2
o2
n6.41
v0
v1
v7
o2
o2
o2
n6.83
v0
v3
v5
o2
o2
o2
n2.89
v0
v6
v7
o2
o2
o2
n2.03
v1
v1
v3
o2
o2
o2
n2.11
v1
v2
v7
o16
o2
o2
o2
n5.81
v1
v5
v5
o2
o2
o2
n5.69
v1
v5
v7
o2
o2
o2
n4.3
v2
v2
v7
o2
o2
o2
n2.25
v2
v3
v5
o2
o2
o2
n6.13
v2
v3
v7
o2
o2
o2
n8.64
v2
v4
v7
o2
o2
o2
n6.04
v2
v6
v7
o2
o2
o2
n5.12
v3
v5
v7
o2
o2
o2
n3.87
v4
v4
v7
o16
o2
o2
o2
n8.48
v4
v6
v7
o2
o2
o2
n5.4
v6
v6
v6
o2
o2
o2
n2.27
v6
v6
v7
o2
o2
o2
n6.64
v6
v7
v7
o2
o2
o2
o2
n8.07
v0
v0
v0
v6
o2
o2
o2
o2
n8.22
v0
v0
v1
v6
o2
o2
o2
o2
n7.06
v0
v0
v2
v7
o2
o2
o2
o2
n1.25
v0
v0
v3
v7
o2
o2
o2
o2
n5.67
v0
v1
v2
v4
o16
o2
o2
o2
o2
n1.4
v0
v1
v3
v6
o2
o2
o2
o2
n4.64
v0
v2
v3
v7
o2
o2
o2
o2
n2.66
v0
v2
v4
v5
o16
o2
o2
o2
o2
n5.43
v0
v3
v5
v5
o2
o2
o2
o2
n7.4
v0
v3
v5
v7
o2
o2
o2
o2
n3
v0
v6
v6
v6
o16
o2
o2
o2
o2
n4.19
v1
v1
v2
v6
o2
o2
o2
o2
n9.16
v1
v1
v3
v4
o2
o2
o2
o2
n0.12
v1
v2
v2
v2
o2
o2
o2
o2
n5.39
v1
v2
v2
v4
o2
o2
o2
o2
n8.96
v1
v2
v6
v7
o2
o2
o2
o2
n9.35
v1
v3
v3
v7
o2
o2
o2
o2
n1.94
v1
v3
v6
v7
o16
o2
o2
o2
o2
n3.96
v1
v4
v6
v7
o2
o2
o2
o2
n2.56
v2
v6
v7
v7
o2
o2
o2
o2
n3.39
v3
v3
v4
v5
o2
o2
o2
o2
n2.06
v3
v3
v5
v7
o2
o2
o2
o2
n4.62
v3
v3
v6
v7
o2
o2
o2
o2
n7.05
v3
v4
v4
v7
o16
o2
o2
o2
o2
n9.11
v3
v4
v5
v5
o2
o2
o2
o2
n6.03
v3
v6
v6
v7
o2
o2
o2
o2
n3.19
v3
v7
v7
v7
o2
o2
o2
o2
n6.1
v4
v4
v4
v7
o2
o2
o2
o2
n1.54
v5
v6
v6
v6
o2
o2
o2
o2
n6.64
v5
v6
v7
v7
o2
o2
o2
o2
n2.76
v7
v7
v7
v7
o2
o2
o2
o2
o2
n1.45
v0
v0
v0
v0
v2
o2
o2
o2
o2
o2
n0.9
v0
v0
v0
v1
v1
o2
o2
o2
o2
o2
n5.9
v0
v0
v0
v2
v2
o2
o2
o2
o2
o2
n2.36
v0
v0
v1
v1
v4
o2
o2
o2
o2
o2
n0.64
v0
v0
v1
v5
v7
o2
o2
o2
o2
o2
n1.86
v0
v0
v2
v2
v6
o2
o2
o2
o2
o2
n8.46
v0
v0
v2
v2
v7
o2
o2
o2
o2
o2
n6.81
v0
v0
v3
v4
v4
o2
o2
o2
o2
o2
n5.9
v0
v0
v3
v5
v7
o2
o2
o2
o2
o2
n4.04
v0
v0
v3
v6
v7
o2
o2
o2
o2
o2
n6.09
v0
v0
v4
v4
v5
o2
o2
o2
o2
o2
n7.88
v0
v0
v6
v6
v6
o2
o2
o2
o2
o2
n4.39
v0
v1
v2
v6
v7
o2
o2
o2
o2
o2
n3.81
v0
v1
v3
v3
v7
o2
o2
o2
o2
o2
n3.55
v0
v1
v3
v5
v7
o2
o2
o2
o2
o2
n6.64
v0
v1
v5
v5
v5
o2
o2
o2
o2
o2
n9.63
v0
v1
v6
v6
v7
o2
o2
o2
o2
o2
n7.25
v0
v2
v2
v4
v5
o2
o2
o2
o2
o2
n5.66
v0
v2
v3
v4
v6
o2
o2
o2
o2
o2
n7.11
v0
v2
v3
v6
v7
o2
o2
o2
o2
o2
n4.18
v0
v2
v4
v7
v7
o2
o2
o2
o2
o2
n4.42
v0
v2
v6
v6
v7
o2
o2
o2
o2
o2
n5.6
v0
v3
v3
v3
v4
o2
o2
o2
o2
o2
n1.15
v0
v3
v3
v3
v5
o2
o2
o2
o2
o2
n3.62
v0
v3
v3
v5
v7
o2
o2
o2
o2
o2
n4.88
v0
v3
v4
v4
v4
o2
o2
o2
o2
o2
n4.5
v0
v3
v4
v4
v5
o2
o2
o2
o2
o2
n4.59
v0
v3
v4
v6
v7
o16
o2
o2
o2
o2
o2
n1.69
v0
v3
v5
v5
v5
o2
o2
o2
o2
o2
n4.45
v0
v3
v5
v5
v6
o2
o2
o2
o2
o2
n2.25
v0
v3
v5
v6
v6
o2
o2
o2
o2
o2
n4.62
v0
v5
v5
v5
v7
o2
o2
o2
o2
o2
n6.81
v0
v7
v7
v7
v7
o2
o2
o2
o2
o2
n3.2
v1
v1
v1
v2
v4
o2
o2
o2
o2
o2
n9.55
v1
v1
v1
v2
v6
o2
o2
o2
o2
o2
n8.37
v1
v1
v1
v4
v5
o2
o2
o2
o2
o2
n9.71
v1
v1
v1
v4
v6
o2
o2
o2
o2
o2
n4.71
v1
v1
v1
v7
v7
o2
o2
o2
o2
o2
n1.28
v1
v1
v2
v3
v4
o16
o2
o2
o2
o2
o2
n2.87
v1
v1
v2
v5
v5
o2
o2
o2
o2
o2
n2.41
v1
v1
v3
v6
v7
o2
o2
o2
o2
o2
n6.6
v1
v1
v4
v5
v6
o2
o2
o2
o2
o2
n1.04
v1
v1
v4
v7
v7
o2
o2
o2
o2
o2
n6.15
v1
v2
v2
v2
v7
o2
o2
o2
o2
o2
n8.41
v1
v2
v2
v3
v5
o2
o2
o2
o2
o2
n2.26
v1
v2
v2
v3
v6
o2
o2
o2
o2
o2
n6.94
v1
v2
v2
v3
v7
o2
o2
o2
o2
o2
n9.6
v1
v2
v3
v3
v6
o2
o2
o2
o2
o2
n4.11
v1
v2
v3
v6
v6
o16
o2
o2
o2
o2
o2
n3.88
v1
v2
v4
v5
v5
o16
o2
o2
o2
o2
o2
n8.75
v1
v2
v4
v6
v7
o2
o2
o2
o2
o2
n1.63
v1
v3
v3
v4
v4
o2
o2
o2
o2
o2
n1.55
v1
v3
v3
v6
v6
o2
o2
o2
o2
o2
n6.69
v1
v3
v4
v5
v5
o2
o2
o2
o2
o2
n6.13
v1
v3
v5
v6
v6
o2
o2
o2
o2
o2
n2.55
v1
v3
v6
v7
v7
o2
o2
o2
o2
o2
n2.32
v1
v4
v4
v5
v5
o2
o2
o2
o2
o2
n4.48
v1
v4
v6
v6
v7
o2
o2
o2
o2
o2
n8.27
v2
v2
v2
v2
v5
o2
o2
o2
o2
o2
n0.69
v2
v2
v2
v4
v4
o2
o2
o2
o2
o2
n2.78
v2
v2
v3
v4
v4
o2
o2
o2
o2
o2
n6.36
v2
v2
v3
v5
v5
o2
o2
o2
o2
o2
n4.67
v2
v2
v4
v4
v5
o16
o2
o2
o2
o2
o2
n9.81
v2
v3
v3
v4
v6
o2
o2
o2
o2
o2
n0.47
v2
v4
v4
v5
v7
o2
o2
o2
o2
o2
n4.74
v2
v4
v5
v5
v5
o2
o2
o2
o2
o2
n7.23
v3
v3
v3
v3
v6
o2
o2
o2
o2
o2
n7.69
v3
v3
v3
v6
v6
o2
o2
o2
o2
o2
n1.84
v3
v3
v4
v4
v6
o2
o2
o2
o2
o2
n4.64
v3
v5
v5
v5
v6
o2
o2
o2
o2
o2
n3.56
v3
v5
v5
v6
v7
o16
o2
o2
o2
o2
o2
n6.04
v4
v4
v4
v6
v7
o2
o2
o2
o2
o2
n1.19
v4
v4
v4
v7
v7
o2
o2
o2
o2
o2
n4.13
v4
v5
v5
v5
v5
o2
o2
o2
o2
o2
n1.57
v4
v5
v5
v5
v6
o2
o2
o2
o2
o2
n1.66
v4
v6
v6
v7
v7
o2
o2
o2
o2
o2
n0.85
v5
v6
v6
v6
v7
o2
o2
o2
o2
o2
n6.17
v6
v6
v7
v7
v7
k7
5
10
15
20
25
30
35
J0 8
0 1.34
1 -5.31
2 5.18
3 0.32
4 -2
5 7.91
6 5.41
7 7.05
J1 8
0 4.34
1 3.95
2 7.35
3 4.96
4 8.83
5 4.71
6 3.09
7 -8.71
J2 8
0 0.54
1 1.05
2 1.45
3 6.89
4 6.34
5 3.68
6 6.95
7 7.61
J3 8
0 5.25
1 -8.76
2 2.64
3 -1.53
4 1.78
5 2.64
6 0.54
7 3.12
J4 8
0 -9.83
1 4.55
2 4.68
3 1.46
4 9.14
5 7.83
6 6.49
7 1.43
G0 8
0 -1.4
1 8.13
2 8.68
3 4.72
4 -0.65
5 2.66
6 8.17
7 1.65
